(set-logic QF_S)
(declare-fun var0 () String)
(assert (RegexIn var0 (RegexConcat (RegexPlus (RegexUnion (Str2Reg "00") (Str2Reg "111"))) (RegexConcat (RegexUnion (RegexPlus (Str2Reg "2")) (RegexPlus (Str2Reg "33"))) (RegexConcat (RegexStar (RegexUnion (Str2Reg "4") (Str2Reg "55"))) (RegexConcat (RegexPlus (RegexPlus (Str2Reg "666"))) (RegexConcat (RegexUnion (RegexStar (Str2Reg "7")) (RegexStar (Str2Reg "8"))) (RegexConcat (RegexUnion (RegexPlus (Str2Reg "9")) (RegexPlus (Str2Reg "aaa"))) (RegexConcat (RegexUnion (RegexStar (Str2Reg "b")) (RegexStar (Str2Reg "cc"))) (RegexConcat (RegexStar (RegexUnion (Str2Reg "ddd") (Str2Reg "ee"))) (RegexConcat (RegexUnion (RegexPlus (Str2Reg "ff")) (RegexPlus (Str2Reg "gg"))) (RegexConcat (RegexStar (RegexUnion (Str2Reg "hh") (Str2Reg "iii"))) (RegexConcat (RegexUnion (RegexStar (Str2Reg "jjj")) (RegexStar (Str2Reg "k"))) (RegexConcat (RegexPlus (RegexPlus (Str2Reg "lll"))) (RegexConcat (RegexUnion (RegexPlus (Str2Reg "mm")) (RegexPlus (Str2Reg "nnn"))) (RegexConcat (RegexStar (RegexPlus (Str2Reg "o"))) (RegexConcat (RegexUnion (RegexPlus (Str2Reg "pp")) (RegexPlus (Str2Reg "qqq"))) (RegexConcat (RegexUnion (RegexStar (Str2Reg "r")) (RegexStar (Str2Reg "ss"))) (RegexConcat (RegexPlus (RegexUnion (Str2Reg "tt") (Str2Reg "u"))) (RegexConcat (RegexPlus (RegexUnion (Str2Reg "vv") (Str2Reg "www"))) (RegexConcat (RegexUnion (RegexPlus (Str2Reg "xxx")) (RegexPlus (Str2Reg "yy"))) (RegexConcat (RegexPlus (RegexStar (Str2Reg "zz"))) (RegexConcat (RegexPlus (RegexStar (Str2Reg "AAA"))) (RegexConcat (RegexPlus (RegexPlus (Str2Reg "BB"))) (RegexConcat (RegexUnion (RegexUnion (Str2Reg "C") (Str2Reg "DD")) (RegexUnion (Str2Reg "EE") (Str2Reg "F"))) (RegexConcat (RegexPlus (RegexStar (Str2Reg "G"))) (RegexConcat (RegexPlus (RegexUnion (Str2Reg "H") (Str2Reg "III"))) (RegexConcat (RegexPlus (RegexStar (Str2Reg "J"))) (RegexConcat (RegexPlus (RegexUnion (Str2Reg "KK") (Str2Reg "LLL"))) (RegexConcat (RegexPlus (RegexStar (Str2Reg "MM"))) (RegexConcat (RegexPlus (RegexUnion (Str2Reg "NNN") (Str2Reg "OOO"))) (RegexConcat (RegexUnion (RegexUnion (Str2Reg "PPP") (Str2Reg "QQQ")) (RegexUnion (Str2Reg "R") (Str2Reg "SS"))) (RegexConcat (RegexUnion (RegexPlus (Str2Reg "TTT")) (RegexPlus (Str2Reg "UUU"))) (RegexConcat (RegexStar (RegexStar (Str2Reg "VV"))) (RegexConcat (RegexPlus (RegexUnion (Str2Reg "W") (Str2Reg "X"))) (RegexConcat (RegexStar (RegexPlus (Str2Reg "YYY"))) (RegexConcat (RegexPlus (RegexUnion (Str2Reg "ZZZ") (Str2Reg "!!!"))) (RegexConcat (RegexStar (RegexStar (Str2Reg "\"\"\""))) (RegexConcat (RegexStar (RegexPlus (Str2Reg "##"))) (RegexConcat (RegexPlus (RegexStar (Str2Reg "$$"))) (RegexConcat (RegexUnion (RegexPlus (Str2Reg "%%%")) (RegexPlus (Str2Reg "&&"))) (RegexConcat (RegexPlus (RegexStar (Str2Reg "'"))) (RegexConcat (RegexPlus (RegexUnion (Str2Reg "(((") (Str2Reg "))"))) (RegexConcat (RegexUnion (RegexUnion (Str2Reg "*") (Str2Reg "+")) (RegexUnion (Str2Reg ",,,") (Str2Reg "---"))) (RegexUnion (RegexUnion (Str2Reg ".") (Str2Reg "/")) (RegexUnion (Str2Reg "::") (Str2Reg ";;")))))))))))))))))))))))))))))))))))))))))))))))
(check-sat)